
(set-logic ALL) 

(declare-datatype MyList ((Nil) (Cons (head Real) (tail MyList)) )) 
(declare-fun l0 () MyList) 
(declare-fun l1 () MyList) 
(declare-fun l2 () MyList) 
(declare-fun l3 () MyList) 
(declare-fun i0 () Real) 
(declare-fun i1 () Real) 
(assert (or (= l3 Nil) (is-Nil Nil)) )
(assert (is-Nil l0) )
(assert (= l3 Nil) )
(assert (not (= l0 Nil)) )
(assert (not (is-Cons Nil)) )
(assert (is-Cons Nil) )
(assert (= l0 l3) )
(assert (= l3 l0) )
(check-sat)
